DIMENSION: 20
EDGE_WEIGHT_TYPE: EXPLICIT
EDGE_WEIGHT_FORMAT: FULL_MATRIX
EDGE_WEIGHT_SECTION:
32767 61 73 69 26 32767 32767 11 32767 32767 32767 50 32767 32767 32767 85 32767 62 32767 32767 
61 32767 80 63 32767 32767 69 99 32767 32767 32767 96 32767 32767 54 89 32767 82 32767 32767 
73 80 32767 32767 32767 32767 32767 32767 90 32767 34 32767 32767 45 32767 32767 32767 32767 32767 32767 
69 63 32767 32767 98 32767 96 54 27 32767 32767 32767 75 32767 32767 32767 32767 41 32767 32767 
26 32767 32767 98 32767 3 32767 65 32767 32767 67 32767 24 32767 69 32767 32767 32767 34 32767 
32767 32767 32767 32767 3 32767 9 32767 32767 32767 32767 29 32767 32767 32767 93 32767 32767 32767 85 
32767 69 32767 96 32767 9 32767 32767 32767 32767 77 6 32767 32767 32767 32767 32767 32767 32767 55 
11 99 32767 54 65 32767 32767 32767 32767 32767 32767 32767 32767 32767 32767 32767 32767 32767 32767 15 
32767 32767 90 27 32767 32767 32767 32767 32767 32767 25 32767 32767 32767 32767 32767 89 32767 32767 32767 
32767 32767 32767 32767 32767 32767 32767 32767 32767 32767 32767 32767 32767 90 94 70 32767 32767 32767 80 
32767 32767 34 32767 67 32767 77 32767 25 32767 32767 32767 70 32767 32767 32767 32767 32767 32767 45 
50 96 32767 32767 32767 29 6 32767 32767 32767 32767 32767 32767 34 32767 66 32767 32767 32767 32767 
32767 32767 32767 75 24 32767 32767 32767 32767 32767 70 32767 32767 32767 32767 32767 59 32767 32767 32767 
32767 32767 45 32767 32767 32767 32767 32767 32767 90 32767 34 32767 32767 32767 32767 100 60 32767 32767 
32767 54 32767 32767 69 32767 32767 32767 32767 94 32767 32767 32767 32767 32767 32767 8 81 32767 32767 
85 89 32767 32767 32767 93 32767 32767 32767 70 32767 66 32767 32767 32767 32767 32767 30 32767 32767 
32767 32767 32767 32767 32767 32767 32767 32767 89 32767 32767 32767 59 100 8 32767 32767 16 32767 57 
62 82 32767 41 32767 32767 32767 32767 32767 32767 32767 32767 32767 60 81 30 16 32767 32767 67 
32767 32767 32767 32767 34 32767 32767 32767 32767 32767 32767 32767 32767 32767 32767 32767 32767 32767 32767 32767 
32767 32767 32767 32767 32767 85 55 15 32767 80 45 32767 32767 32767 32767 32767 57 67 32767 32767 
EOF